NAME          ClpDefau
ROWS
 N  OBJROW
 L  H05_12
 L  H05_14
 L  H05_16
 L  H07_12
 L  H07_16
 L  H09_12
 L  H09_14
 L  H10_15
 L  H13_15
 L  H13_16
COLUMNS
    Q1        OBJROW    1.          
    Q1        H05_12    -0.01019485 
    Q1        H05_14    -0.01030537 
    Q1        H05_16    -0.007825903
    Q1        H07_12    -0.00991185 
    Q1        H07_16    -0.007559331
    Q1        H09_12    -0.007315795
    Q1        H09_14    -0.007420325
    Q1        H10_15    -0.006283423
    Q1        H13_15    -0.00479245 
    Q1        H13_16    -0.00463179 
    Q2        OBJROW    1.          
    Q2        H05_12    -0.007789138
    Q2        H05_14    -0.01034214 
    Q2        H05_16    -0.01030538 
    Q2        H07_12    -0.007523459
    Q2        H07_16    -0.01001962 
    Q2        H09_12    -0.006422868
    Q2        H09_14    -0.00745515 
    Q2        H10_15    -0.006683147
    Q2        H13_15    -0.00493955 
    Q2        H13_16    -0.0048771  
    Q3        OBJROW    1.          
    Q3        H05_12    -0.007970339
    Q3        H05_14    -0.00929591 
    Q3        H05_16    -0.00804271 
    Q3        H07_12    -0.00894488 
    Q3        H07_16    -0.009016   
    Q3        H09_12    -0.007595774
    Q3        H09_14    -0.00890618 
    Q3        H10_15    -0.007344805
    Q3        H13_15    -0.00534693 
    Q3        H13_16    -0.00519641 
    Q4        OBJROW    1.          
    Q4        H05_12    -0.007504779
    Q4        H05_14    -0.007611444
    Q4        H05_16    -0.006637871
    Q4        H07_12    -0.00972287 
    Q4        H07_16    -0.007379155
    Q4        H09_12    -0.0096143  
    Q4        H09_14    -0.00971859 
    Q4        H10_15    -0.007594325
    Q4        H13_15    -0.0056886  
    Q4        H13_16    -0.00541579 
    Q5        OBJROW    1.          
    Q5        H05_12    -0.006602351
    Q5        H05_14    -0.007646963
    Q5        H05_16    -0.007611446
    Q5        H07_12    -0.007343977
    Q5        H07_16    -0.0098285  
    Q5        H09_12    -0.007240175
    Q5        H09_14    -0.00975332 
    Q5        H10_15    -0.00883313 
    Q5        H13_15    -0.00595585 
    Q5        H13_16    -0.00585875 
    Q6        OBJROW    1.          
    Q6        H05_12    -0.00517529 
    Q6        H05_14    -0.00579649 
    Q6        H05_16    -0.005998559
    Q6        H07_12    -0.00579601 
    Q6        H07_16    -0.007474091
    Q6        H09_12    -0.006362072
    Q6        H09_14    -0.00832909 
    Q6        H10_15    -0.01105369 
    Q6        H13_15    -0.007420331
    Q6        H13_16    -0.007584244
    Q7        OBJROW    1.          
    Q7        H05_12    -0.00463308 
    Q7        H05_14    -0.00494582 
    Q7        H05_16    -0.00491298 
    Q7        H07_12    -0.00534808 
    Q7        H07_16    -0.00582287 
    Q7        H09_12    -0.006319067
    Q7        H09_14    -0.0073448  
    Q7        H10_15    -0.00890618 
    Q7        H13_15    -0.01141979 
    Q7        H13_16    -0.01001962 
RHS
    RHS       H05_12     -27.6968161
    RHS       H05_14     -26.2375925
    RHS       H05_16     -24.881336 
    RHS       H07_12     -27.6948751
    RHS       H07_16     -24.8830196
    RHS       H09_12     -27.6896556
    RHS       H09_14     -26.228642 
    RHS       H10_15     -25.5380839
    RHS       H13_15     -25.5432537
    RHS       H13_16     -24.8815809
BOUNDS
 UP BOUND     Q1        20000.      
 UP BOUND     Q2        20000.      
 UP BOUND     Q3        20000.      
 UP BOUND     Q4        20000.      
 UP BOUND     Q5        20000.      
 UP BOUND     Q6        20000.      
 UP BOUND     Q7        20000.      
ENDATA
